100
100
48 6
43 5
40 5
44 5
49 6
33 3
35 3
43 5
26 3
29 3
45 5
32 3
49 7
49 5
44 5
46 5
39 4
37 4
32 3
28 3
44 6
47 5
27 2
36 3
28 4
33 3
32 4
30 3
44 6
32 3
49 5
32 4
28 2
31 4
47 5
29 3
43 5
43 5
34 4
29 3
28 3
37 4
34 4
43 5
37 4
35 4
41 4
38 5
30 3
33 3
33 4
43 4
34 4
26 3
30 3
44 4
28 3
43 4
32 4
48 5
30 4
29 3
35 4
27 2
38 4
27 3
35 3
25 3
43 5
25 2
30 3
30 4
25 3
28 3
32 3
38 5
47 5
46 4
33 3
25 3
45 5
49 6
29 3
34 4
39 5
40 4
46 4
49 6
25 2
25 3
36 5
40 4
35 4
31 3
44 5
45 6
48 5
35 5
42 6
30 3
